SYSTEM=Au_H2O_Ne_phi2_n_steps500_test1 #jobname
PREC=NORMAL
ALGO=Fast
LREAL=Auto
LWAVE=.TRUE.
LORBIT=11
PLUGINS/LOCAL_POTENTIAL=T
PLUGINS/OCCUPANCIES=T
SMASS=-3
NSW=500
NBLOCK=1
POTIM=0.5
ISYM=0
LCHARG=.TRUE.
LVTOT=.FALSE.
TEBEG=400
MDALGO=3
LANGEVIN_GAMMA=5.0 5.0 5.0 5.0
NELECT=1312.0
IDIPOL=3
DIPOL=0.0 0.0 0.379713725
LDIPOL=.TRUE.
ENCUT=500
LVHAR=.TRUE.
ISMEAR=-1
SIGMA=0.1
EDIFF=0.0001
IWAVPR=1
AMIN=0.01
NCORE=40
IVDW=12
NELM=200
ISIF=2
