Poscar file generated with pyiron
1.0
11.600511010000000 0.000000000000000 0.000000000000000
0.000000000000000 10.046337230000001 0.000000000000000
0.000000000000000 0.000000000000000 36.371479710000003
Au H Ne O
64 120 16 60
Selective dynamics
Direct
0.000000000000000 0.000000000000000 0.000000000000000 F F F
0.250000020000000 0.000000000000000 0.000000000000000 F F F
0.500000040000000 0.000000000000000 0.000000000000000 F F F
0.749999980000000 0.000000000000000 0.000000000000000 F F F
0.125000010000000 0.249999970000000 0.000000000000000 F F F
0.375000030000000 0.249999970000000 0.000000000000000 F F F
0.624999970000000 0.249999970000000 0.000000000000000 F F F
0.874999990000000 0.249999970000000 0.000000000000000 F F F
0.000000000000000 0.500000040000000 0.000000000000000 F F F
0.250000020000000 0.500000040000000 0.000000000000000 F F F
0.500000040000000 0.500000040000000 0.000000000000000 F F F
0.749999980000000 0.500000040000000 0.000000000000000 F F F
0.125000010000000 0.750000010000000 0.000000000000000 F F F
0.375000030000000 0.750000010000000 0.000000000000000 F F F
0.624999970000000 0.750000010000000 0.000000000000000 F F F
0.874999990000000 0.750000010000000 0.000000000000000 F F F
0.125000010000000 0.083333360000000 0.065104420000000 F F F
0.375000030000000 0.083333360000000 0.065104420000000 F F F
0.624999970000000 0.083333360000000 0.065104420000000 F F F
0.874999990000000 0.083333360000000 0.065104420000000 F F F
0.000000000000000 0.333333330000000 0.065104420000000 F F F
0.250000020000000 0.333333330000000 0.065104420000000 F F F
0.500000040000000 0.333333330000000 0.065104420000000 F F F
0.749999980000000 0.333333330000000 0.065104420000000 F F F
0.125000010000000 0.583333300000000 0.065104420000000 F F F
0.375000030000000 0.583333300000000 0.065104420000000 F F F
0.624999970000000 0.583333300000000 0.065104420000000 F F F
0.874999990000000 0.583333300000000 0.065104420000000 F F F
0.000000000000000 0.833333360000000 0.065104420000000 F F F
0.250000020000000 0.833333360000000 0.065104420000000 F F F
0.500000040000000 0.833333360000000 0.065104420000000 F F F
0.749999980000000 0.833333360000000 0.065104420000000 F F F
0.998592911295453 0.142247679750062 0.133282441413668 T T T
0.237481266957530 0.142578915781819 0.131620047084561 T T T
0.494877244176719 0.143926883552469 0.128324322600432 T T T
0.747185470724951 0.139296035463253 0.131619067202782 T T T
0.133944361191479 0.393664058011851 0.132604999973358 T T T
0.382255263780563 0.390587658529039 0.131385194633584 T T T
0.619944878448142 0.395264071309460 0.130201318863534 T T T
0.880059970389106 0.382650981784485 0.129950043938028 T T T
0.990657196464284 0.616967174845912 0.132316244073767 T T T
0.246729147274198 0.651132085110213 0.127235914784959 T T T
0.495762318184484 0.640310579410560 0.130666768592443 T T T
0.746105441610914 0.639437289223791 0.130883173091068 T T T
0.107813992856374 0.890110499187682 0.135819010274632 T T T
0.361835370886781 0.910758329615716 0.133778720632838 T T T
0.627982386026056 0.902297818064245 0.125988242470656 T T T
0.884926179201576 0.893674157571068 0.129832188742430 T T T
0.005540103266452 0.965509784729976 0.199887983333600 T T T
0.245799262945430 0.983664107182922 0.194795498195716 T T T
0.517948730529922 0.985165264872311 0.193285821292885 T T T
0.765472589712852 0.959200405143198 0.197244062540895 T T T
0.117050506668804 0.228914666129762 0.200031709512887 T T T
0.368613155348526 0.208483842456780 0.194040857908414 T T T
0.634620983108904 0.226154944758065 0.194044711941067 T T T
0.881088779099933 0.209107522188830 0.201091079267840 T T T
0.995465544710992 0.461635764562428 0.203161901740197 T T T
0.273130146021501 0.479112113829712 0.197578491493957 T T T
0.517194687898863 0.479296404294960 0.196094428962335 T T T
0.769044050081500 0.476753121154145 0.194272358441005 T T T
0.118322332300845 0.715978335860707 0.199919632119884 T T T
0.385748966996343 0.752926691966323 0.201371291737035 T T T
0.640101458243849 0.717822987329729 0.195636912889811 T T T
0.883030323636612 0.722652374603819 0.211699319014440 T T T
0.682884587412967 0.482406295442360 0.665193289569126 T T T
0.615716817158161 0.515835737565474 0.702492510658461 T T T
0.145379484637183 0.380136509965265 0.335287066740723 T T T
0.163373294710546 0.520754522188627 0.343857220275670 T T T
0.823351268412553 0.101550395534933 0.286875810481405 T T T
0.755438999417862 0.972578397659557 0.275838290164567 T T T
0.029537527699668 0.353141534756492 0.501257341686996 T T T
0.057620822460715 0.364107608861872 0.457445890377524 T T T
0.758803972944318 0.183538652418833 0.447868031912545 T T T
0.887634588733738 0.167453530313291 0.452271414913663 T T T
0.744519956116912 0.357761206332104 0.599420144293247 T T T
0.821419438648435 0.255948891788762 0.616968985427782 T T T
0.063569571938974 0.276688271358507 0.650842235298141 T T T
0.074105493148537 0.165536446948871 0.624112289119396 T T T
0.372054325361295 0.291175820365048 0.565646595881931 T T T
0.306885264910243 0.226501385392738 0.598266608642722 T T T
0.469417931464658 0.914921703688495 0.519312516343429 T T T
0.427819942659853 0.823698504702139 0.488171618390429 T T T
0.317195539579568 0.648887095305296 0.569065902854357 T T T
0.219847553562508 0.700475305325979 0.598372667198738 T T T
0.007182973775747 0.429709926467288 0.613889559094842 T T T
0.911583898915593 0.452357188386358 0.639424043473686 T T T
0.394620033849546 0.991879035706570 0.259902826548597 T T T
0.305366519278868 0.020732536649377 0.292971511757393 T T T
0.936281266152688 0.857351506282055 0.327177061733487 T T T
0.926717801390590 0.856851884286969 0.287438541909516 T T T
0.157558729349469 0.005628019799155 0.505687060493356 T T T
0.134508186838400 0.165175302924378 0.500025331109297 T T T
0.974760443811398 0.568889562818162 0.418200144081779 T T T
0.900403059647054 0.688868520691146 0.402282041198677 T T T
0.443174930003924 0.579799951770671 0.618045983963458 T T T
0.403431602874955 0.463693406362867 0.589229175169939 T T T
0.322966081067495 0.614997222367252 0.477856294330430 T T T
0.237761953067855 0.731964096643152 0.464664312805483 T T T
0.783768097860628 0.303972217660358 0.280240051653097 T T T
0.840576682083445 0.321259536600302 0.321154734308909 T T T
0.785836662263416 0.680441007651166 0.635870173005200 T T T
0.848938359941330 0.803634702103540 0.627113192415421 T T T
0.594083893876221 0.716154626256168 0.259437852170623 T T T
0.679379996886959 0.743643914459373 0.290736775039448 T T T
0.056886534856520 0.744820214607644 0.431934804041909 T T T
0.086073435184895 0.880266643658761 0.444626883489027 T T T
0.181828764124129 0.826508795483033 0.397336864127091 T T T
0.117059606836009 0.919312902810943 0.367758597690440 T T T
0.919324172666640 0.719245559738034 0.508099385396941 T T T
0.912192438906892 0.731911492838960 0.467466637111731 T T T
0.501387005878813 0.256199031421671 0.337064309444132 T T T
0.519313924186232 0.299472760421967 0.377304510923617 T T T
0.972807461029581 0.594667167827360 0.554509039623565 T T T
0.862505389958422 0.659203953173427 0.573032759244353 T T T
0.827003321185433 0.340067445496866 0.490693016265438 T T T
0.800883360324114 0.494063598032138 0.495898882414333 T T T
0.990325588727461 0.147739648235695 0.572374956885872 T T T
0.107272696523505 0.085196843055057 0.565547592682825 T T T
0.340166367709681 0.889531184528536 0.357117514582340 T T T
0.453259660903810 0.865340369279362 0.330457963827140 T T T
0.325327146514152 0.795501738747593 0.682983259756076 T T T
0.291954914771327 0.935515929081868 0.679859773140497 T T T
0.464048898993014 0.144869522695443 0.504802924198444 T T T
0.530813140576403 0.246356717051720 0.528957045573483 T T T
0.377354039107692 0.678600874271789 0.430596947499432 T T T
0.414318624363512 0.705533247115274 0.389123810707075 T T T
0.970551984463757 0.956783261816465 0.408637076218944 T T T
0.896218401127014 0.004239946916191 0.375476321813364 T T T
0.126892230445333 0.374066565288123 0.572324400044144 T T T
0.175663665545222 0.510507622887741 0.576810674746486 T T T
0.470741073426397 0.999488681476097 0.594972495070221 T T T
0.569705347937208 0.900293443308350 0.587580184467703 T T T
0.736550139297517 0.649534280651994 0.352169910340250 T T T
0.818006388118817 0.639581210450159 0.317663040421995 T T T
0.244923894934048 0.156824519128336 0.643951313862683 T T T
0.269559073089565 0.021464536196665 0.627770526195425 T T T
0.604707011709514 0.042469075281132 0.541270383249688 T T T
0.709411791328972 0.962041670387491 0.524608815893129 T T T
0.704153708666586 0.744713883018381 0.401154067813683 T T T
0.765968195508307 0.862752063639042 0.378164693356165 T T T
0.299479897219118 0.125272889490875 0.464527500748593 T T T
0.397215440550038 0.193849590976930 0.434788826360394 T T T
0.181038475562866 0.775125138911616 0.655481552317503 T T T
0.128488129163292 0.629056757409054 0.651276770229601 T T T
0.873003532409925 0.016696743327611 0.608646631232952 T T T
0.775172158103381 0.060260961052470 0.579230881857053 T T T
0.025530680203928 0.869825783222666 0.637827334879082 T T T
0.015283479784461 0.022179482108911 0.650897166709763 T T T
0.022925935764613 0.307928545117630 0.288478551636340 T T T
0.141320657838738 0.364280345237676 0.274094315753868 T T T
0.043519700753701 0.388733629384973 0.390025697521652 T T T
0.922681048815969 0.359468592335236 0.411490500762565 T T T
0.076581066387578 0.891242117635103 0.547774113166559 T T T
0.204933635175957 0.849384431922627 0.552066056289152 T T T
0.653568939702449 0.368649785692593 0.525052309952145 T T T
0.571763828776204 0.478055868660571 0.541459898215682 T T T
0.541629146077633 0.657556557141547 0.658999550583374 T T T
0.465203628543846 0.752671854563925 0.633927836073029 T T T
0.304343321458359 0.344029196551069 0.370551933479332 T T T
0.378508017825173 0.461384602636090 0.388402091843938 T T T
0.287767477693694 0.631192329813118 0.300625100820644 T T T
0.393162831630366 0.649504424281751 0.269998825961592 T T T
0.606448420763480 0.988066879528866 0.468905364778361 T T T
0.731190669407229 0.933016945894804 0.454335761109910 T T T
0.527575553679365 0.665838541683910 0.559515128123413 T T T
0.547706060352223 0.726491041152831 0.519168771094712 T T T
0.765786780858990 0.440926012148866 0.357689120497416 T T T
0.701337222672710 0.320774349376488 0.357103148654538 T T T
0.562434081307829 0.341662383357397 0.284064419521595 T T T
0.647435219969035 0.457538593297307 0.275949889752850 T T T
0.380995394981719 0.292068341078681 0.281141765779809 T T T
0.402796131293543 0.446602697244421 0.296606261793035 T T T
0.617574451951270 0.578460697980089 0.451274415448821 T T T
0.545801639627742 0.657180988787356 0.426538951856245 T T T
0.120934577248411 0.703650301435351 0.306134277382819 T T T
0.179910105980738 0.759174719816291 0.341954496858541 T T T
0.246523869639241 0.385614594545766 0.489024908499567 T T T
0.371567170157121 0.398496469510664 0.473964642661244 T T T
0.084324691801409 0.973333874745834 0.287086200054310 T T T
0.130197370809288 0.130472535341473 0.286206925867749 T T T
0.677085637783245 0.069472398860327 0.396256206988386 T T T
0.645379669939571 0.033382576214370 0.358793280770795 T T T
0.056328399429640 0.055404168568431 0.464915355808630 T T T
0.945463988035846 0.941623930693486 0.465818103352744 T T T
0.000000000000000 0.000000000000000 0.759427450000000 F F F
0.250000000000000 0.000000000000000 0.759427450000000 F F F
0.500000000000000 0.000000000000000 0.759427450000000 F F F
0.750000000000000 0.000000000000000 0.759427450000000 F F F
0.125000000000000 0.250000000000000 0.759427450000000 F F F
0.375000000000000 0.250000000000000 0.759427450000000 F F F
0.625000000000000 0.250000000000000 0.759427450000000 F F F
0.875000000000000 0.250000000000000 0.759427450000000 F F F
0.000000000000000 0.500000000000000 0.759427450000000 F F F
0.250000000000000 0.500000000000000 0.759427450000000 F F F
0.500000000000000 0.500000000000000 0.759427450000000 F F F
0.750000000000000 0.500000000000000 0.759427450000000 F F F
0.125000000000000 0.750000000000000 0.759427450000000 F F F
0.375000000000000 0.750000000000000 0.759427450000000 F F F
0.625000000000000 0.750000000000000 0.759427450000000 F F F
0.875000000000000 0.750000000000000 0.759427450000000 F F F
0.654914400307539 0.560304353207495 0.680797928813614 T T T
0.168462946842285 0.431701620123282 0.355886289776937 T T T
0.831658911804354 0.006465220741348 0.280256341869691 T T T
0.088089489165924 0.339945848244745 0.481189425981493 T T T
0.829133258591527 0.238698623475456 0.443463201396194 T T T
0.792323385401407 0.344982624342652 0.622325062980102 T T T
0.087677638688596 0.185282011034120 0.649491189707914 T T T
0.311517062963862 0.305832796225724 0.582840321185561 T T T
0.500651094001374 0.864751265153707 0.497529796801696 T T T
0.256573707838516 0.716522551581893 0.573469278368050 T T T
0.996949998994559 0.451743721972128 0.639789571406737 T T T
0.387052996257874 0.005403284694280 0.286076489597239 T T T
0.974574913345502 0.811602759077294 0.305394932900602 T T T
0.162307931182982 0.084407030363004 0.487264854601987 T T T
0.954675713994106 0.661551880175670 0.422865474294581 T T T
0.426452649926027 0.556076030394833 0.590512318832175 T T T
0.318481060069864 0.712848332797136 0.472605589216688 T T T
0.853318216766016 0.283205376327333 0.295901686953835 T T T
0.811795936503551 0.732472328387399 0.615788444810240 T T T
0.607361196377736 0.771660433355800 0.280352898680315 T T T
0.131799873900227 0.795651315763231 0.438183836165690 T T T
0.191149134052274 0.868937874403800 0.372562021131046 T T T
0.895801832397646 0.779560536706492 0.489010018069888 T T T
0.562508875522080 0.258779117127515 0.355543274110004 T T T
0.900627796668266 0.635945066993527 0.549182396619807 T T T
0.826025131607697 0.411982951425226 0.510364082526402 T T T
0.070174334133795 0.167473533110014 0.575220057199573 T T T
0.418908945272715 0.855412778838127 0.354138599180579 T T T
0.256360821565858 0.854641795137175 0.684456126060467 T T T
0.497402431206229 0.151067185453932 0.529126987508685 T T T
0.409890134791088 0.638658265686051 0.408862845898337 T T T
0.962112219175531 0.952259859873751 0.381382374798860 T T T
0.101377970375964 0.466483254245326 0.572850714645773 T T T
0.503203664736096 0.915027957951650 0.602751142070872 T T T
0.750667463878412 0.597210335994727 0.328525618586069 T T T
0.306875928349519 0.105742025520822 0.633489575186498 T T T
0.676302303738864 0.994293369781289 0.547021809851252 T T T
0.765896462103419 0.765520605562452 0.383306365911452 T T T
0.384249194441703 0.164752431107303 0.460578827809571 T T T
0.141063350284224 0.715890948909682 0.637130198884389 T T T
0.847712407196678 0.084220734785631 0.592067264109032 T T T
0.975169361993605 0.944097406146071 0.640913037469945 T T T
0.106268405411069 0.302477568101885 0.292583910394974 T T T
0.999758789414297 0.403718987940218 0.412731104341464 T T T
0.152874513747888 0.932588008766978 0.547099453840095 T T T
0.589132093125777 0.383320685715708 0.540869545587193 T T T
0.463394352618725 0.689743339452476 0.654043982084596 T T T
0.370375811542570 0.361907769599169 0.385990881251271 T T T
0.336822097606405 0.582775075334550 0.280663762824109 T T T
0.678483848548056 0.016733435434064 0.453782367601431 T T T
0.569554752104403 0.654385794163995 0.536393339522166 T T T
0.783844039215642 0.348420429466665 0.360212867661756 T T T
0.634324302321236 0.361679753170257 0.269219534556527 T T T
0.434775363207625 0.352002710099969 0.296696444223696 T T T
0.612073710120454 0.666667007071499 0.441303352498959 T T T
0.183709460715167 0.686339653164533 0.321068834755993 T T T
0.314244043636078 0.446727286483086 0.485803608390468 T T T
0.153261849395511 0.034006680971188 0.286429260081157 T T T
0.709608763633585 0.020377232517729 0.375855841715971 T T T
0.975237592338036 0.024452246231028 0.453354978433605 T T T
