Kpoints file generated with pyiron_atomistics
0
Gamma centered
2 2 1
0 0 0
