Poscar file generated with pyiron
1.0
11.600511010000000 0.000000000000000 0.000000000000000
0.000000000000000 10.046337230000001 0.000000000000000
0.000000000000000 0.000000000000000 27.103833179999999
Au H
64 1
Selective dynamics
Direct
0.000000000000000 0.000000000000000 0.000000000000000 F F F
0.250000000000000 0.000000000000000 0.000000000000000 F F F
0.500000000000000 0.000000000000000 0.000000000000000 F F F
0.750000000000000 0.000000000000000 0.000000000000000 F F F
0.125000000000000 0.250000000000000 0.000000000000000 F F F
0.375000000000000 0.250000000000000 0.000000000000000 F F F
0.625000000000000 0.250000000000000 0.000000000000000 F F F
0.875000000000000 0.250000000000000 0.000000000000000 F F F
0.000000000000000 0.500000000000000 0.000000000000000 F F F
0.250000000000000 0.500000000000000 0.000000000000000 F F F
0.500000000000000 0.500000000000000 0.000000000000000 F F F
0.750000000000000 0.500000000000000 0.000000000000000 F F F
0.125000000000000 0.750000000000000 0.000000000000000 F F F
0.375000000000000 0.750000000000000 0.000000000000000 F F F
0.625000000000000 0.750000000000000 0.000000000000000 F F F
0.875000000000000 0.750000000000000 0.000000000000000 F F F
0.125000000000000 0.083333330000000 0.087365660000000 F F F
0.375000000000000 0.083333330000000 0.087365660000000 F F F
0.625000000000000 0.083333330000000 0.087365660000000 F F F
0.875000000000000 0.083333330000000 0.087365660000000 F F F
0.000000000000000 0.333333330000000 0.087365660000000 F F F
0.250000000000000 0.333333330000000 0.087365660000000 F F F
0.500000000000000 0.333333330000000 0.087365660000000 F F F
0.750000000000000 0.333333330000000 0.087365660000000 F F F
0.125000000000000 0.583333330000000 0.087365660000000 F F F
0.375000000000000 0.583333330000000 0.087365660000000 F F F
0.625000000000000 0.583333330000000 0.087365660000000 F F F
0.875000000000000 0.583333330000000 0.087365660000000 F F F
0.000000000000000 0.833333330000000 0.087365660000000 F F F
0.250000000000000 0.833333330000000 0.087365660000000 F F F
0.500000000000000 0.833333330000000 0.087365660000000 F F F
0.750000000000000 0.833333330000000 0.087365660000000 F F F
0.999917960000000 0.168196880000000 0.174279730000000 T T T
0.250174910000000 0.169042150000000 0.174756220000000 T T T
0.499849680000000 0.169095520000000 0.174746010000000 T T T
0.750055560000000 0.168346480000000 0.174312180000000 T T T
0.125298040000000 0.419064260000000 0.174389220000000 T T T
0.374973360000000 0.418804050000000 0.174801740000000 T T T
0.624718780000000 0.419076280000000 0.174382980000000 T T T
0.875014430000000 0.419321100000000 0.174304650000000 T T T
0.999625720000000 0.669428180000000 0.174970150000000 T T T
0.250020670000000 0.668490320000000 0.174480420000000 T T T
0.499973000000000 0.668490510000000 0.174466160000000 T T T
0.750441260000000 0.669457380000000 0.174963640000000 T T T
0.125088180000000 0.918829610000000 0.174626830000000 T T T
0.375004250000000 0.919209690000000 0.174712450000000 T T T
0.624970510000000 0.918751300000000 0.174627570000000 T T T
0.875085530000000 0.916546670000000 0.175109200000000 T T T
0.001824860000000 0.005183180000000 0.263918470000000 T T T
0.250896860000000 0.004095700000000 0.264801480000000 T T T
0.499190950000000 0.004008190000000 0.264749520000000 T T T
0.748336440000000 0.005120550000000 0.263814930000000 T T T
0.125902790000000 0.253329350000000 0.264379140000000 T T T
0.374994130000000 0.253961730000000 0.264933460000000 T T T
0.624134560000000 0.253292920000000 0.264405020000000 T T T
0.875010940000000 0.252257920000000 0.263952870000000 T T T
0.001040570000000 0.500521770000000 0.263547260000000 T T T
0.250247170000000 0.503591520000000 0.264877870000000 T T T
0.499526930000000 0.503406950000000 0.264803870000000 T T T
0.748928830000000 0.500505200000000 0.263523860000000 T T T
0.127656460000000 0.753864740000000 0.264058050000000 T T T
0.375049380000000 0.753615730000000 0.264545080000000 T T T
0.622441980000000 0.753582890000000 0.264001760000000 T T T
0.875087730000000 0.753178300000000 0.265386190000000 T T T
0.874926450000000 0.750989500000000 0.324244450000000 T T T
