Poscar file generated with pyiron
1.0
11.600511010000000 0.000000000000000 0.000000000000000
-0.000000000000000 10.046337230000001 0.000000000000000
-0.000000000000000 -0.000000000000000 36.371479710000003
Au H O
64 120 60
Selective dynamics
Direct
0.000000000000000 0.000000000000000 0.000000000000000 F F F
0.250000020000000 0.000000000000000 0.000000000000000 F F F
0.500000040000000 0.000000000000000 0.000000000000000 F F F
0.749999980000000 0.000000000000000 0.000000000000000 F F F
0.125000010000000 0.249999970000000 0.000000000000000 F F F
0.375000030000000 0.249999970000000 0.000000000000000 F F F
0.624999970000000 0.249999970000000 0.000000000000000 F F F
0.874999990000000 0.249999970000000 0.000000000000000 F F F
0.000000000000000 0.500000040000000 0.000000000000000 F F F
0.250000020000000 0.500000040000000 0.000000000000000 F F F
0.500000040000000 0.500000040000000 0.000000000000000 F F F
0.749999980000000 0.500000040000000 0.000000000000000 F F F
0.125000010000000 0.750000010000000 0.000000000000000 F F F
0.375000030000000 0.750000010000000 0.000000000000000 F F F
0.624999970000000 0.750000010000000 0.000000000000000 F F F
0.874999990000000 0.750000010000000 0.000000000000000 F F F
0.125000010000000 0.083333360000000 0.065104420000000 F F F
0.375000030000000 0.083333360000000 0.065104420000000 F F F
0.624999970000000 0.083333360000000 0.065104420000000 F F F
0.874999990000000 0.083333360000000 0.065104420000000 F F F
0.000000000000000 0.333333330000000 0.065104420000000 F F F
0.250000020000000 0.333333330000000 0.065104420000000 F F F
0.500000040000000 0.333333330000000 0.065104420000000 F F F
0.749999980000000 0.333333330000000 0.065104420000000 F F F
0.125000010000000 0.583333300000000 0.065104420000000 F F F
0.375000030000000 0.583333300000000 0.065104420000000 F F F
0.624999970000000 0.583333300000000 0.065104420000000 F F F
0.874999990000000 0.583333300000000 0.065104420000000 F F F
0.000000000000000 0.833333360000000 0.065104420000000 F F F
0.250000020000000 0.833333360000000 0.065104420000000 F F F
0.500000040000000 0.833333360000000 0.065104420000000 F F F
0.749999980000000 0.833333360000000 0.065104420000000 F F F
0.009392950000000 0.151361130000000 0.128593960000000 T T T
0.251913010000000 0.173650180000000 0.132271520000000 T T T
0.493106050000000 0.176231530000000 0.133254980000000 T T T
0.746703650000000 0.162465360000000 0.129730380000000 T T T
0.128316470000000 0.419562360000000 0.133690690000000 T T T
0.368733700000000 0.414901990000000 0.131655960000000 T T T
0.624668740000000 0.412214240000000 0.133774410000000 T T T
0.884383840000000 0.399115650000000 0.126658350000000 T T T
0.996590010000000 0.647758400000000 0.126682160000000 T T T
0.262220250000000 0.662009340000000 0.128810980000000 T T T
0.496498140000000 0.668954950000000 0.134510920000000 T T T
0.754417990000000 0.663298790000000 0.129319560000000 T T T
0.112104790000000 0.890271200000000 0.129070400000000 T T T
0.362861220000000 0.908118860000000 0.129806350000000 T T T
0.615938030000000 0.901340950000000 0.128402540000000 T T T
0.863818480000000 0.914327160000000 0.131839970000000 T T T
0.003676350000000 0.953866120000000 0.196839400000000 T T T
0.236280120000000 0.996346530000000 0.195736730000000 T T T
0.484881900000000 0.971132470000000 0.191375450000000 T T T
0.744052820000000 0.974718000000000 0.197452190000000 T T T
0.110149870000000 0.225882580000000 0.198635020000000 T T T
0.390615440000000 0.223805340000000 0.205609880000000 T T T
0.634703020000000 0.237477800000000 0.194622230000000 T T T
0.877289440000000 0.214806960000000 0.194729320000000 T T T
0.003971990000000 0.481723320000000 0.195375310000000 T T T
0.239000310000000 0.457181790000000 0.203255980000000 T T T
0.471616230000000 0.483525230000000 0.199670150000000 T T T
0.754477890000000 0.485149480000000 0.200663680000000 T T T
0.127663380000000 0.710572170000000 0.194584680000000 T T T
0.370952650000000 0.729914370000000 0.205676120000000 T T T
0.624882300000000 0.707619490000000 0.203185360000000 T T T
0.871574350000000 0.713054620000000 0.196609320000000 T T T
0.640336020000000 0.728112870000000 0.667185860000000 T T T
0.687598680000000 0.641389020000000 0.697922060000000 T T T
0.077487520000000 0.262688950000000 0.264528800000000 T T T
0.206128980000000 0.259329320000000 0.280671120000000 T T T
0.761535470000000 0.018319860000000 0.299655660000000 T T T
0.671784750000000 0.909601420000000 0.273988440000000 T T T
0.239581420000000 0.421281070000000 0.483911570000000 T T T
0.166091820000000 0.411279280000000 0.445186030000000 T T T
0.720756980000000 0.325897000000000 0.437728030000000 T T T
0.842428230000000 0.298644940000000 0.461363950000000 T T T
0.622606150000000 0.322489750000000 0.620119110000000 T T T
0.624764200000000 0.403151730000000 0.654250730000000 T T T
0.165152920000000 0.382018240000000 0.630325140000000 T T T
0.147112690000000 0.229973450000000 0.609090210000000 T T T
0.341561990000000 0.402158280000000 0.594494170000000 T T T
0.384500950000000 0.553680190000000 0.594540240000000 T T T
0.605746000000000 0.748845950000000 0.445106330000000 T T T
0.651518260000000 0.831999460000000 0.476188670000000 T T T
0.378457190000000 0.980777380000000 0.590796650000000 T T T
0.453693140000000 0.902718290000000 0.564442760000000 T T T
0.158655220000000 0.113369970000000 0.703846520000000 T T T
0.131654910000000 0.219998710000000 0.675994330000000 T T T
0.305750430000000 0.971065740000000 0.278495870000000 T T T
0.411754450000000 0.060867680000000 0.262574130000000 T T T
0.064599920000000 0.554892290000000 0.284634810000000 T T T
0.976535850000000 0.666071010000000 0.279834120000000 T T T
0.220393740000000 0.197392100000000 0.464105260000000 T T T
0.340925300000000 0.119015000000000 0.461868300000000 T T T
0.185795220000000 0.427355310000000 0.385746740000000 T T T
0.081980730000000 0.515859350000000 0.398568770000000 T T T
0.791400000000000 0.494385890000000 0.529423420000000 T T T
0.777338600000000 0.572604930000000 0.560073850000000 T T T
0.449227960000000 0.534190290000000 0.455952340000000 T T T
0.410933710000000 0.642392980000000 0.433760410000000 T T T
0.816832000000000 0.218295610000000 0.315137450000000 T T T
0.782135820000000 0.122205540000000 0.350166010000000 T T T
0.852074290000000 0.673017750000000 0.663940860000000 T T T
0.939117720000000 0.787684580000000 0.666869490000000 T T T
0.449726730000000 0.868123790000000 0.286186120000000 T T T
0.538911570000000 0.745409520000000 0.295191450000000 T T T
0.230949670000000 0.673059150000000 0.412763420000000 T T T
0.263741470000000 0.821944260000000 0.415370300000000 T T T
0.236457920000000 0.064603870000000 0.416788460000000 T T T
0.177908900000000 0.045118690000000 0.380904350000000 T T T
0.891086820000000 0.823864580000000 0.455807550000000 T T T
0.007600270000000 0.832563160000000 0.475192940000000 T T T
0.625129060000000 0.174480780000000 0.419237230000000 T T T
0.544367940000000 0.305184030000000 0.415688160000000 T T T
0.880969830000000 0.727841270000000 0.602956810000000 T T T
0.924798490000000 0.694097900000000 0.565019920000000 T T T
0.064428430000000 0.328429800000000 0.499009600000000 T T T
0.080548520000000 0.240751140000000 0.539086200000000 T T T
0.013806240000000 0.113031040000000 0.580466290000000 T T T
0.144391760000000 0.090632360000000 0.565182170000000 T T T
0.420012050000000 0.986502320000000 0.374012070000000 T T T
0.445002420000000 0.026214650000000 0.337727530000000 T T T
0.154111000000000 0.812777070000000 0.511810000000000 T T T
0.173745510000000 0.742452480000000 0.473795930000000 T T T
0.724260820000000 0.138558740000000 0.515537980000000 T T T
0.641842840000000 0.207418880000000 0.546429920000000 T T T
0.674664520000000 0.938434960000000 0.422534650000000 T T T
0.615607480000000 0.007100990000000 0.382878100000000 T T T
0.922079640000000 0.843572040000000 0.327833840000000 T T T
0.888136730000000 0.870299940000000 0.287231840000000 T T T
0.038288980000000 0.471829150000000 0.539034870000000 T T T
0.067315190000000 0.613666740000000 0.525948950000000 T T T
0.635323540000000 0.951526380000000 0.645664550000000 T T T
0.715096150000000 0.878865660000000 0.620392080000000 T T T
0.764666900000000 0.617370850000000 0.314763450000000 T T T
0.719394380000000 0.536793710000000 0.280895850000000 T T T
0.329222310000000 0.211958720000000 0.632653420000000 T T T
0.456553310000000 0.191407230000000 0.628308180000000 T T T
0.851153140000000 0.046745010000000 0.566154920000000 T T T
0.922803260000000 0.916611830000000 0.580712360000000 T T T
0.889291900000000 0.591307260000000 0.402381540000000 T T T
0.917391210000000 0.675355180000000 0.371371210000000 T T T
0.504240100000000 0.218130180000000 0.505089690000000 T T T
0.520950370000000 0.211591310000000 0.463808000000000 T T T
0.061224640000000 0.579019200000000 0.630668160000000 T T T
0.122195820000000 0.557642600000000 0.593770930000000 T T T
0.754322560000000 0.031611910000000 0.683729970000000 T T T
0.663044810000000 0.136457350000000 0.680676220000000 T T T
0.007843760000000 0.021475550000000 0.678462320000000 T T T
0.937814080000000 0.009764850000000 0.643935860000000 T T T
0.812855090000000 0.353330230000000 0.268223920000000 T T T
0.900487920000000 0.428689690000000 0.290795070000000 T T T
0.331695810000000 0.349846280000000 0.363384940000000 T T T
0.228950950000000 0.338376850000000 0.335426910000000 T T T
0.219092470000000 0.028714310000000 0.504472900000000 T T T
0.271028880000000 0.968618430000000 0.545361400000000 T T T
0.643486230000000 0.403205500000000 0.563083370000000 T T T
0.512087510000000 0.383350920000000 0.572284860000000 T T T
0.289433120000000 0.689916180000000 0.626405650000000 T T T
0.372299080000000 0.764311220000000 0.606097340000000 T T T
0.500235850000000 0.477129540000000 0.393995710000000 T T T
0.534555900000000 0.392447560000000 0.359050130000000 T T T
0.262638630000000 0.613078520000000 0.309604370000000 T T T
0.286455440000000 0.604430570000000 0.269459350000000 T T T
0.899827860000000 0.041821880000000 0.481871970000000 T T T
0.923307830000000 0.165379940000000 0.509257630000000 T T T
0.595455370000000 0.787720350000000 0.544015180000000 T T T
0.632008010000000 0.927009120000000 0.533540320000000 T T T
0.953537420000000 0.400571530000000 0.378058370000000 T T T
0.893298770000000 0.279957770000000 0.402166450000000 T T T
0.623071420000000 0.421881660000000 0.310836880000000 T T T
0.636656170000000 0.275201790000000 0.319817240000000 T T T
0.357767230000000 0.372606020000000 0.278705640000000 T T T
0.449293700000000 0.279251080000000 0.294305470000000 T T T
0.783283440000000 0.666985630000000 0.445354240000000 T T T
0.803545660000000 0.515064390000000 0.445586470000000 T T T
0.362814980000000 0.684675610000000 0.361590620000000 T T T
0.423300350000000 0.803411500000000 0.339153930000000 T T T
0.436213530000000 0.358928670000000 0.496180190000000 T T T
0.383840450000000 0.454158400000000 0.527443370000000 T T T
0.084712550000000 0.905513630000000 0.288408400000000 T T T
0.137403330000000 0.053206160000000 0.283679340000000 T T T
0.947549830000000 0.956378540000000 0.374754940000000 T T T
0.815042170000000 0.949887550000000 0.388906910000000 T T T
0.050203400000000 0.110274690000000 0.330143450000000 T T T
0.020622250000000 0.190610100000000 0.367865790000000 T T T
0.683056530000000 0.648402430000000 0.671175300000000 T T T
0.125585760000000 0.223556740000000 0.282757480000000 T T T
0.753946530000000 0.942048660000000 0.281544200000000 T T T
0.179519640000000 0.378102700000000 0.470152990000000 T T T
0.802775460000000 0.353247680000000 0.442127590000000 T T T
0.602341380000000 0.312229570000000 0.646246740000000 T T T
0.187108350000000 0.284535910000000 0.629476710000000 T T T
0.381539430000000 0.461864370000000 0.577376240000000 T T T
0.667292170000000 0.811076220000000 0.450913560000000 T T T
0.377209330000000 0.902784630000000 0.574091040000000 T T T
0.093837700000000 0.166629370000000 0.694704880000000 T T T
0.383748930000000 0.008979030000000 0.282436720000000 T T T
0.990212660000000 0.570614120000000 0.272811430000000 T T T
0.257342850000000 0.108207590000000 0.458689300000000 T T T
0.165925660000000 0.500610320000000 0.404533840000000 T T T
0.729670640000000 0.508606480000000 0.546768460000000 T T T
0.480977400000000 0.600301460000000 0.440019310000000 T T T
0.761680030000000 0.146348940000000 0.325529850000000 T T T
0.930904310000000 0.702222630000000 0.655779570000000 T T T
0.511910610000000 0.805607610000000 0.275892300000000 T T T
0.283644170000000 0.737579620000000 0.426740180000000 T T T
0.244013670000000 0.007189820000000 0.395324620000000 T T T
0.947154760000000 0.888681730000000 0.466886290000000 T T T
0.592566950000000 0.255144380000000 0.431993240000000 T T T
0.864241430000000 0.745220580000000 0.577589310000000 T T T
0.030228420000000 0.304627180000000 0.523363140000000 T T T
0.093948470000000 0.159407550000000 0.578455490000000 T T T
0.479601730000000 0.970752900000000 0.357495170000000 T T T
0.133436710000000 0.732318180000000 0.495660500000000 T T T
0.684129630000000 0.126458750000000 0.538439210000000 T T T
0.664305580000000 0.014070860000000 0.404212480000000 T T T
0.937829420000000 0.808694390000000 0.303732990000000 T T T
0.042485630000000 0.567140290000000 0.548420030000000 T T T
0.637104370000000 0.873646190000000 0.630017380000000 T T T
0.691228550000000 0.599367170000000 0.299780890000000 T T T
0.385982030000000 0.146336390000000 0.625857470000000 T T T
0.928299180000000 0.009408360000000 0.572292960000000 T T T
0.922109960000000 0.585207540000000 0.377664190000000 T T T
0.457252980000000 0.212934060000000 0.482929820000000 T T T
0.137528400000000 0.561846750000000 0.620624950000000 T T T
0.675156830000000 0.049984240000000 0.690543580000000 T T T
0.936271850000000 0.981676720000000 0.669614380000000 T T T
0.849559360000000 0.348735870000000 0.293775080000000 T T T
0.250430710000000 0.327963720000000 0.361698920000000 T T T
0.203055990000000 0.982337920000000 0.528665110000000 T T T
0.586233270000000 0.333483830000000 0.571509290000000 T T T
0.375150130000000 0.688999060000000 0.621824960000000 T T T
0.479206450000000 0.384815450000000 0.382217670000000 T T T
0.243409240000000 0.559606600000000 0.289152110000000 T T T
0.866289410000000 0.127230830000000 0.490569560000000 T T T
0.578421060000000 0.860219280000000 0.525816460000000 T T T
0.949243220000000 0.303403250000000 0.383760440000000 T T T
0.576877110000000 0.348273110000000 0.318291290000000 T T T
0.370836110000000 0.276852390000000 0.280830160000000 T T T
0.844731960000000 0.602853670000000 0.442565430000000 T T T
0.390659860000000 0.714439040000000 0.337870750000000 T T T
0.422701740000000 0.449988770000000 0.503089700000000 T T T
0.157945480000000 0.954542020000000 0.286522480000000 T T T
0.877911330000000 0.900610590000000 0.377307690000000 T T T
0.051124800000000 0.099219420000000 0.356729690000000 T T T
