SYSTEM=AuH_on_top_relax_q_0d2_test1 #jobname
PREC=NORMAL
ALGO=Fast
LREAL=Auto
LWAVE=.TRUE.
LORBIT=11
ISIF=2
IBRION=2
NELM=100
NSW=100
LCHARG=.TRUE.
LVTOT=.TRUE.
EDIFFG=-0.01
PLUGINS/LOCAL_POTENTIAL=T
PLUGINS/FORCE_AND_STRESS=T
PLUGINS/OCCUPANCIES=T
LREMOVE_DRIFT=F
ENCUT=500
ISMEAR=-1
SIGMA=0.1
IWAVPR=1
ISYM=0
IVDW=12
EDIFF=1e-06
NELECT=705.2
