SYSTEM=Au_H2O_MD_phim1d25_z_FSE25d62_n_steps5000_test1 #jobname
PREC=NORMAL
ALGO=Fast
LREAL=Auto
LWAVE=.TRUE.
LORBIT=11
PLUGINS/LOCAL_POTENTIAL=T
PLUGINS/FORCE_AND_STRESS=T
PLUGINS/OCCUPANCIES=T
SMASS=-3
NSW=5000

POTIM=0.5
ISYM=0
LCHARG=.TRUE.
LVTOT=.FALSE.
TEBEG=400
MDALGO=3
LANGEVIN_GAMMA=5.0 5.0 5.0
ENCUT=500
LVHAR=.TRUE.
ISMEAR=-1
SIGMA=0.1
EDIFF=0.0001
NELECT=1184
LREMOVE_DRIFT=F
IWAVPR=1
AMIN=0.01
NCORE=40
IVDW=12
NELM=200
ISIF=2
