Kpoints file generated with pyiron_atomistics
0
Monkhorst_Pack
1 1 1
0 0 0
