SYSTEM=H_linear_0d1_Fcorr #jobname
PREC=Accurate
ALGO=Fast
LREAL=.FALSE.
LWAVE=.FALSE.
LORBIT=0
PLUGINS/LOCAL_POTENTIAL=T
PLUGINS/FORCE_AND_STRESS=T
LVHAR=.TRUE.
IBRION=-1
NELM=100
NSW=0
LCHARG=.FALSE.
LVTOT=.FALSE.
