Poscar file generated with pyiron
1.0
10.000000000000000 0.000000000000000 0.000000000000000
0.000000000000000 10.000000000000000 0.000000000000000
0.000000000000000 0.000000000000000 30.000000000000000
H
1
Cartesian
5.000000000000000 5.000000000000000 10.000000000000000
